results_rootrelaxation/bin018_060_004.srr.sol
solution status: optimal solution found
objective value:                                    0
_var2776_                          0.0455549525141156 	(obj:0)
_var2794_                           0.113131800117671 	(obj:0)
_var2805_                          0.0257573654616815 	(obj:0)
_var2806_                           0.372361621817675 	(obj:0)
_var2809_                            0.26045029156234 	(obj:0)
_var2841_                           0.226806344746978 	(obj:0)
_var2843_                           0.259378097645402 	(obj:0)
_var2844_                           0.010389096009287 	(obj:0)
_var2848_                          0.0438210786198715 	(obj:0)
_var2851_                          0.0598924894645344 	(obj:0)
_var2861_                          0.0546823713744728 	(obj:0)
_var2867_                           0.065018233297259 	(obj:0)
_var2868_                           0.326031616240846 	(obj:0)
_var2873_                          0.0654180228602639 	(obj:0)
_var2879_                            0.14447707380842 	(obj:0)
_var2886_                           0.128367696817729 	(obj:0)
_var2887_                          0.0529454913200111 	(obj:0)
_var2888_                           0.167288055077245 	(obj:0)
_var2907_                           0.144921197433681 	(obj:0)
_var2911_                            0.29404600420792 	(obj:0)
_var2912_                           0.133828759576734 	(obj:0)
_var2913_                          0.0289667487102234 	(obj:0)
_var2918_                           0.113131800117671 	(obj:0)
_var2931_                         0.00737018278505734 	(obj:0)
_var2932_                          0.0279075419227881 	(obj:0)
_var2934_                           0.151614481625045 	(obj:0)
_var2936_                           0.272161224159617 	(obj:0)
_var2937_                           0.170936387990073 	(obj:0)
_var2938_                           0.209304420088096 	(obj:0)
_var2956_                           0.238864844514386 	(obj:0)
_var2958_                           0.175380724107635 	(obj:0)
_var2960_                           0.218684951772809 	(obj:0)
_var2963_                           0.221147694870962 	(obj:0)
_var2967_                           0.180104468762283 	(obj:0)
_var2970_                           0.104738793313832 	(obj:0)
_var2992_                          0.0118955060835674 	(obj:0)
_var2993_                          0.0047150877894527 	(obj:0)
_var2995_                           0.543145244027318 	(obj:0)
_var2999_                          0.0967267526775026 	(obj:0)
_var3000_                           0.254936207452238 	(obj:0)
_var3003_                           0.158125565661831 	(obj:0)
_var3009_                           0.229540100680647 	(obj:0)
_var3011_                          0.0111104086744812 	(obj:0)
_var3016_                           0.110946727443628 	(obj:0)
_var3025_                           0.169382929920946 	(obj:0)
_var3032_                          0.0885841881950129 	(obj:0)
_var3036_                           0.120052401163943 	(obj:0)
_var3041_                            0.22926045822388 	(obj:0)
_var3042_                           0.228007352892943 	(obj:0)
_var3044_                          0.0151218508072088 	(obj:0)
_var3046_                           0.134295453186256 	(obj:0)
_var3053_                           0.254257142540625 	(obj:0)
_var3054_                           0.182306950290871 	(obj:0)
_var3059_                           0.151434864887771 	(obj:0)
_var3065_                           0.169317791665826 	(obj:0)
_var3067_                             0.4067565183861 	(obj:0)
_var3068_                           0.245285517908659 	(obj:0)
_var3073_                           0.184578897944843 	(obj:0)
_var3076_                          0.0695052384150067 	(obj:0)
_var3078_                           0.248933844120683 	(obj:0)
_var3079_                          0.0209395613648399 	(obj:0)
_var3085_                          0.0563932285328772 	(obj:0)
_var3088_                          0.0123547883758265 	(obj:0)
_var3089_                           0.213857048967611 	(obj:0)
_var3093_                           0.141605456456445 	(obj:0)
_var3099_                          0.0801814217828474 	(obj:0)
_var3103_                           0.182011595523137 	(obj:0)
_var3107_                           0.172990297076693 	(obj:0)
_var3108_                           0.328597140705688 	(obj:0)
_var3111_                          0.0251205230519871 	(obj:0)
_var3113_                           0.297792924323764 	(obj:0)
_var3116_                           0.110540140981204 	(obj:0)
_var3118_                           0.140200778303579 	(obj:0)
_var3119_                           0.135884628987591 	(obj:0)
_var3120_                           0.155249778986556 	(obj:0)
_var3121_                           0.074287766600401 	(obj:0)
_var3122_                          0.0423171936843983 	(obj:0)
_var3124_                          0.0999795130903966 	(obj:0)
_var3127_                          0.0310742493066956 	(obj:0)
_var3128_                          0.0848051952839479 	(obj:0)
_var3129_                          0.0137280454368458 	(obj:0)
_var3134_                           0.267140084701454 	(obj:0)
_var3135_                           0.036965216230979 	(obj:0)
_var3138_                          0.0210408187781314 	(obj:0)
_var3139_                          0.0423030392507008 	(obj:0)
_var3140_                          0.0233188278535597 	(obj:0)
_var3144_                          0.0146609771216317 	(obj:0)
_var3146_                            0.17848333041842 	(obj:0)
_var3147_                           0.113857760655984 	(obj:0)
_var3150_                          0.0195445703490334 	(obj:0)
_var3151_                           0.155810875926857 	(obj:0)
_var3152_                          0.0401177178553642 	(obj:0)
_var3153_                         0.00512664369360397 	(obj:0)
_var3154_                           0.189575082758082 	(obj:0)
_var3155_                           0.120185454731591 	(obj:0)
_var3156_                           0.209670163485724 	(obj:0)
_var3159_                            0.10663593378216 	(obj:0)
_var3160_                          0.0506464910300308 	(obj:0)
_var3162_                            0.08598223560664 	(obj:0)
_var3164_                          0.0359541437547775 	(obj:0)
_var3165_                             0.1119065723734 	(obj:0)
_var3166_                           0.107592732905928 	(obj:0)
_var3170_                           0.105097389252645 	(obj:0)
_var3171_                          0.0300953182363886 	(obj:0)
_var3172_                           0.239870046096016 	(obj:0)
_var3176_                          0.0977617676626141 	(obj:0)
_var3177_                          0.0795795975592503 	(obj:0)
_var3178_                         0.00318660949672978 	(obj:0)
_var3179_                          0.0889880767156513 	(obj:0)
_var3180_                           0.150222934721277 	(obj:0)
_var3185_                          0.0690506491723934 	(obj:0)
_var3186_                          0.0301653594246725 	(obj:0)
_var3187_                          0.0080590593228691 	(obj:0)
_var3188_                           0.148114598823826 	(obj:0)
_var3190_                          0.0785861980994424 	(obj:0)
_var3192_                           0.102348461541528 	(obj:0)
_var3198_                          0.0266063007561048 	(obj:0)
_var3199_                          0.0408890675744595 	(obj:0)
_var3202_                          0.0824405007411577 	(obj:0)
_var3203_                           0.071578295498112 	(obj:0)
_var3205_                           0.043421518760637 	(obj:0)
_var3207_                          0.0961860677362782 	(obj:0)
_var3209_                           0.049641504962169 	(obj:0)
_var3210_                          0.0394894325042567 	(obj:0)
_var3212_                          0.0856199143827575 	(obj:0)
_var3216_                           0.156630641482957 	(obj:0)
_var3217_                           0.075038862756748 	(obj:0)
_var3218_                           0.154813200875517 	(obj:0)
_var3226_                         0.00095138032139841 	(obj:0)
_var3227_                           0.165265813937174 	(obj:0)
_var3228_                           0.169944184181532 	(obj:0)
_var3229_                          0.0884442692187881 	(obj:0)
_var3230_                          0.0621910527142991 	(obj:0)
_var3232_                          0.0482476039502619 	(obj:0)
_var3236_                           0.050398078626809 	(obj:0)
_var3237_                          0.0591724513950048 	(obj:0)
_var3238_                           0.134630551311423 	(obj:0)
_var3239_                         0.00683433679230533 	(obj:0)
_var3243_                          0.0902058602551696 	(obj:0)
_var3245_                          0.0229789257607476 	(obj:0)
_var3246_                         0.00248255259710306 	(obj:0)
_var3248_                          0.0164332848884386 	(obj:0)
_var3250_                          0.0131330213556097 	(obj:0)
_var3251_                          0.0034940109216624 	(obj:0)
_var3255_                          0.0266792316153061 	(obj:0)
_var3256_                          0.0207722227369106 	(obj:0)
_var3257_                          0.0186918884642498 	(obj:0)
_var3262_                          0.0414374436529284 	(obj:0)
_var3263_                           0.014595585303181 	(obj:0)
